param set_len = 16;
param target_sum = 35509742;
param values := [1] 6137513 [2] 6503438 [3] 3794845 [4] 6280612 [5] 3834492 [6] 26410 [7] 6843043 [8] 6674805 [9] 311178 [10] 2002333 [11] 2420572 [12] 5102926 [13] 7087078 [14] 7934137 [15] 4513040 [16] 5936449 ;
